%Chk=an.chk
%Nproc=6
%Mem=15000Mb
#p wB97XD/GEN 6D Iop(6/7=3) Iop(9/40=14) scf(maxcyc=200,conver=7) nosym Guess(Read,TCheck) GFInput Force

Comment

-1 2
C -0.049735932 -0.074357536 0.038858388
C 0.141870643 0.210262481 1.258927525
H 0.895296518 -0.005987017 1.909725814
H -0.581270698 0.844162202 1.917473893

H  0
S 4 1.0
  13.010000000 0.019685000
  1.962000000 0.137977000
  0.444600000 0.478148000
  0.122000000 0.501240000
S 1 1.0
  0.122000000 1.000000000
S 1 1.0
  0.029740000 1.000000000
S 1 1.0
  0.007250000 1.000000000
P 1 1.0
  0.727000000 1.000000000
P 1 1.0
  0.141000000 1.000000000
P 1 1.0
  0.027300000 1.000000000
****
C  0
S 9 1.0
  6665.000000000 0.000692000
  1000.000000000 0.005329000
  228.000000000 0.027077000
  64.710000000 0.101718000
  21.060000000 0.274740000
  7.495000000 0.448564000
  2.797000000 0.285074000
  0.521500000 0.015204000
  0.159600000 -0.003191000
S 9 1.0
  6665.000000000 -0.000146000
  1000.000000000 -0.001154000
  228.000000000 -0.005725000
  64.710000000 -0.023312000
  21.060000000 -0.063955000
  7.495000000 -0.149981000
  2.797000000 -0.127262000
  0.521500000 0.544529000
  0.159600000 0.580496000
S 1 1.0
  0.159600000 1.000000000
S 1 1.0
  0.046900000 1.000000000
S 1 1.0
  0.013800000 1.000000000
P 4 1.0
  9.439000000 0.038109000
  2.002000000 0.209480000
  0.545600000 0.508557000
  0.151700000 0.468842000
P 1 1.0
  0.151700000 1.000000000
P 1 1.0
  0.040410000 1.000000000
P 1 1.0
  0.010800000 1.000000000
D 1 1.0
  0.550000000 1.000000000
D 1 1.0
  0.151000000 1.000000000
D 1 1.0
  0.041500000 1.000000000
****

