%Chk=neu.chk
%Nproc=10
%Mem=25000Mb
#p wB97XD/GEN 6D Iop(6/7=3) Iop(9/40=14) scf(maxcyc=200,conver=8) nosym Guess(Read,TCheck) GFInput 

Comment

0 1
C -4.958591314 0.310098853 0.869439572
C -3.607396994 1.076558765 0.982612044
N -5.154621254 -0.730290326 1.660212398
H -5.752480105 1.009518463 0.906991288
H -4.801235183 -0.138463082 -0.204218355
O -6.234045992 -0.988638035 2.293942490
O -4.117812302 -1.545533636 1.562068414
C -3.480739592 1.711305482 2.445165236
H -2.940299160 0.367790762 0.747248706
H -3.608026207 1.773129708 0.186569685
H -3.536082302 0.955652996 3.137001089
H -2.810077656 2.492847187 2.448324471
H -4.643781631 2.130120215 2.341083478

H  0
S 3 1.0
  18.731136960 0.033494604
  2.825394365 0.234726954
  0.640121692 0.813757326
S 1 1.0
  0.161277759 1.000000000
P 1 1.0
  1.100000000 1.000000000
****
C  0
S 6 1.0
  3047.524880000 0.001834737
  457.369518000 0.014037323
  103.948685000 0.068842622
  29.210155300 0.232184443
  9.286662960 0.467941348
  3.163926960 0.362311985
S 3 1.0
  7.868272350 -0.119332420
  1.881288540 -0.160854152
  0.544249258 1.143456438
S 1 1.0
  0.168714478 1.000000000
S 1 1.0
  0.043800000 1.000000000
P 3 1.0
  7.868272350 0.068999067
  1.881288540 0.316423961
  0.544249258 0.744308291
P 1 1.0
  0.168714478 1.000000000
P 1 1.0
  0.043800000 1.000000000
D 1 1.0
  0.800000000 1.000000000
****
N  0
S 6 1.0
  4173.511460000 0.001834772
  627.457911000 0.013994627
  142.902093000 0.068586552
  40.234329300 0.232240873
  12.820212900 0.469069948
  4.390437010 0.360455199
S 3 1.0
  11.626361860 -0.114961182
  2.716279807 -0.169117479
  0.772218397 1.145851947
S 1 1.0
  0.212031497 1.000000000
S 1 1.0
  0.063900000 1.000000000
S 1 1.0
  0.018257143 1.000000000
S 1 1.0
  0.005216327 1.000000000
P 3 1.0
  11.626361860 0.067579744
  2.716279807 0.323907296
  0.772218397 0.740895140
P 1 1.0
  0.212031497 1.000000000
P 1 1.0
  0.063900000 1.000000000
P 1 1.0
  0.018257143 1.000000000
P 1 1.0
  0.005216327 1.000000000
D 1 1.0
  0.800000000 1.000000000
****
O  0
S 6 1.0
  5484.671660000 0.001831074
  825.234946000 0.013950172
  188.046958000 0.068445078
  52.964500000 0.232714336
  16.897570400 0.470192898
  5.799635340 0.358520853
S 3 1.0
  15.539616250 -0.110777550
  3.599933586 -0.148026263
  1.013761750 1.130767015
S 1 1.0
  0.270005823 1.000000000
S 1 1.0
  0.084500000 1.000000000
P 3 1.0
  15.539616250 0.070874268
  3.599933586 0.339752839
  1.013761750 0.727158577
P 1 1.0
  0.270005823 1.000000000
P 1 1.0
  0.084500000 1.000000000
D 1 1.0
  0.800000000 1.000000000
****

