%Chk=anDecay.chk 
%Nproc=10
%Mem=25000Mb
#p TD(nstates=1) wB97XD/GEN 6D Iop(6/7=3) Iop(9/40=14) scf(maxcyc=200,conver=8) nosym Guess(Read,TCheck) GFInput Pop=(minimal,nto,savento) Density=(transition=1)

Comment

-1 1
N 0.939594089 -0.844223896 -0.059309281
C -0.245140838 -0.124274708 0.112848964
C 0.071290795 1.269089603 -0.004959183
C 1.498555230 1.310506673 0.010778654
C 1.879816934 -0.040733414 -0.029699060
C -1.539363774 -0.720895598 -0.039297746
N -2.693594257 -0.976127237 0.000934058
H -0.716813032 2.140184048 -0.094837956
H 1.760160342 2.437612847 0.395660357
H 3.055705435 -0.391812998 -0.081397576

H  0
S 3 1.0
  33.865000000 0.025493800
  5.094790000 0.190373000
  1.158790000 0.852161000
S 1 1.0
  0.325840000 1.000000000
S 1 1.0
  0.102741000 1.000000000
S 1 1.0
  0.036000000 1.000000000
P 1 1.0
  0.750000000 1.000000000
****
C  0
S 6 1.0
  4563.240000000 0.001966650
  682.024000000 0.015230600
  154.973000000 0.076126900
  44.455300000 0.260801000
  13.029000000 0.616462000
  1.827730000 0.221006000
S 3 1.0
  20.964200000 0.114660000
  4.803310000 0.919999000
  1.459330000 -0.003030680
S 1 1.0
  0.483456000 1.000000000
S 1 1.0
  0.145585000 1.000000000
S 1 1.0
  0.043800000 1.000000000
P 3 1.0
  20.964200000 0.040248700
  4.803310000 0.237594000
  1.459330000 0.815854000
P 1 1.0
  0.483456000 1.000000000
P 1 1.0
  0.145585000 1.000000000
P 1 1.0
  0.043800000 1.000000000
D 1 1.0
  0.626000000 1.000000000
****
N  0
S 6 1.0
  6293.480000000 0.001969790
  949.044000000 0.014961300
  218.776000000 0.073500600
  63.691600000 0.248937000
  18.828200000 0.602460000
  2.720230000 0.256202000
S 3 1.0
  30.633100000 0.111906000
  7.026140000 0.921666000
  2.112050000 -0.002569190
S 1 1.0
  0.684009000 1.000000000
S 1 1.0
  0.200878000 1.000000000
S 1 1.0
  0.063900000 1.000000000
S 1 1.0
  0.018257143 1.000000000
S 1 1.0
  0.005216327 1.000000000
S 1 1.0
  0.001490379 1.000000000
P 3 1.0
  30.633100000 0.038311900
  7.026140000 0.237403000
  2.112050000 0.817592000
P 1 1.0
  0.684009000 1.000000000
P 1 1.0
  0.200878000 1.000000000
P 1 1.0
  0.063900000 1.000000000
P 1 1.0
  0.018257143 1.000000000
P 1 1.0
  0.005216327 1.000000000
D 1 1.0
  0.913000000 1.000000000
****

