%Chk=neu.chk
%Nproc=10
%Mem=25000Mb
#p wB97XD/GEN 6D Iop(6/7=3) Iop(9/40=14) scf(maxcyc=200,conver=8) nosym Guess(Read,TCheck) GFInput 

Comment

0 2
N 0.836329541 -0.861937478 0.051535882
C -0.216056828 -0.200973184 0.140476663
C 0.128417728 1.238998757 0.025105865
C 1.403482182 1.403256096 -0.058343027
C 1.877392392 -0.003237196 -0.069661753
C -1.500506516 -0.684901201 -0.017354634
N -2.640470764 -0.979083034 -0.066367565
H -0.506402500 2.064767063 0.001437094
H 2.189543782 2.250666523 0.114581472
H 2.784175949 -0.550589977 -0.150735317

H  0
S 3 1.0
  33.865000000 0.025493800
  5.094790000 0.190373000
  1.158790000 0.852161000
S 1 1.0
  0.325840000 1.000000000
S 1 1.0
  0.102741000 1.000000000
S 1 1.0
  0.036000000 1.000000000
P 1 1.0
  0.750000000 1.000000000
****
C  0
S 6 1.0
  4563.240000000 0.001966650
  682.024000000 0.015230600
  154.973000000 0.076126900
  44.455300000 0.260801000
  13.029000000 0.616462000
  1.827730000 0.221006000
S 3 1.0
  20.964200000 0.114660000
  4.803310000 0.919999000
  1.459330000 -0.003030680
S 1 1.0
  0.483456000 1.000000000
S 1 1.0
  0.145585000 1.000000000
S 1 1.0
  0.043800000 1.000000000
P 3 1.0
  20.964200000 0.040248700
  4.803310000 0.237594000
  1.459330000 0.815854000
P 1 1.0
  0.483456000 1.000000000
P 1 1.0
  0.145585000 1.000000000
P 1 1.0
  0.043800000 1.000000000
D 1 1.0
  0.626000000 1.000000000
****
N  0
S 6 1.0
  6293.480000000 0.001969790
  949.044000000 0.014961300
  218.776000000 0.073500600
  63.691600000 0.248937000
  18.828200000 0.602460000
  2.720230000 0.256202000
S 3 1.0
  30.633100000 0.111906000
  7.026140000 0.921666000
  2.112050000 -0.002569190
S 1 1.0
  0.684009000 1.000000000
S 1 1.0
  0.200878000 1.000000000
S 1 1.0
  0.063900000 1.000000000
S 1 1.0
  0.018257143 1.000000000
S 1 1.0
  0.005216327 1.000000000
S 1 1.0
  0.001490379 1.000000000
P 3 1.0
  30.633100000 0.038311900
  7.026140000 0.237403000
  2.112050000 0.817592000
P 1 1.0
  0.684009000 1.000000000
P 1 1.0
  0.200878000 1.000000000
P 1 1.0
  0.063900000 1.000000000
P 1 1.0
  0.018257143 1.000000000
P 1 1.0
  0.005216327 1.000000000
D 1 1.0
  0.913000000 1.000000000
****

